
Gurobi 5.6.3 (win64) logging started 07/22/14 22:50:10

Optimize a model with 18 rows, 20 columns and 48 nonzeros
Presolve time: 0.00s

Explored 0 nodes (0 simplex iterations) in 0.01 seconds
Thread count was 1 (of 8 available processors)

Model is infeasible
Best objective -, best bound -, gap -

Gurobi 5.6.3 (win64) logging started 07/22/14 22:53:38

Optimize a model with 18 rows, 20 columns and 48 nonzeros
Presolve time: 0.00s

Explored 0 nodes (0 simplex iterations) in 0.07 seconds
Thread count was 1 (of 8 available processors)

Model is infeasible
Best objective -, best bound -, gap -

Gurobi 5.6.3 (win64) logging started 07/22/14 22:54:36

Optimize a model with 18 rows, 20 columns and 48 nonzeros
Presolve time: 0.00s

Explored 0 nodes (0 simplex iterations) in 0.09 seconds
Thread count was 1 (of 8 available processors)

Model is infeasible
Best objective -, best bound -, gap -

Gurobi 5.6.3 (win64) logging started 07/22/14 22:56:23

Optimize a model with 18 rows, 20 columns and 48 nonzeros
Found heuristic solution: objective 462.15
Presolve removed 11 rows and 9 columns
Presolve time: 0.01s
Presolved: 7 rows, 11 columns, 26 nonzeros
Variable types: 0 continuous, 11 integer (0 binary)

Root relaxation: objective 3.760300e+02, 4 iterations, 0.00 seconds

    Nodes    |    Current Node    |     Objective Bounds      |     Work
 Expl Unexpl |  Obj  Depth IntInf | Incumbent    BestBd   Gap | It/Node Time

*    0     0               0     376.0300000  376.03000  0.00%     -    0s

Explored 0 nodes (4 simplex iterations) in 0.16 seconds
Thread count was 8 (of 8 available processors)

Optimal solution found (tolerance 1.00e-04)
Best objective 3.760300000000e+02, best bound 3.760300000000e+02, gap 0.0%

Gurobi 5.6.3 (win64) logging started 07/22/14 22:56:34

Optimize a model with 18 rows, 20 columns and 48 nonzeros
Found heuristic solution: objective 462.15
Presolve removed 11 rows and 9 columns
Presolve time: 0.01s
Presolved: 7 rows, 11 columns, 26 nonzeros
Variable types: 0 continuous, 11 integer (0 binary)

Root relaxation: objective 3.760300e+02, 4 iterations, 0.00 seconds

    Nodes    |    Current Node    |     Objective Bounds      |     Work
 Expl Unexpl |  Obj  Depth IntInf | Incumbent    BestBd   Gap | It/Node Time

*    0     0               0     376.0300000  376.03000  0.00%     -    0s

Explored 0 nodes (4 simplex iterations) in 0.15 seconds
Thread count was 8 (of 8 available processors)

Optimal solution found (tolerance 1.00e-04)
Best objective 3.760300000000e+02, best bound 3.760300000000e+02, gap 0.0%

Gurobi 5.6.3 (win64) logging started 07/22/14 23:00:14

Optimize a model with 33 rows, 40 columns and 96 nonzeros
Found heuristic solution: objective 555.5
Presolve removed 20 rows and 18 columns
Presolve time: 0.00s
Presolved: 13 rows, 22 columns, 56 nonzeros
Variable types: 18 continuous, 4 integer (0 binary)

Root relaxation: objective 4.075664e+02, 11 iterations, 0.00 seconds

    Nodes    |    Current Node    |     Objective Bounds      |     Work
 Expl Unexpl |  Obj  Depth IntInf | Incumbent    BestBd   Gap | It/Node Time

     0     0  407.56644    0    1  555.50000  407.56644  26.6%     -    0s
H    0     0                     411.3164444  407.56644  0.91%     -    0s

Cutting planes:
  MIR: 2

Explored 0 nodes (11 simplex iterations) in 0.11 seconds
Thread count was 8 (of 8 available processors)

Optimal solution found (tolerance 1.00e-04)
Best objective 4.113164444444e+02, best bound 4.113164444444e+02, gap 0.0%
